letting numberLocations be  44
letting costs be function (
(0,0) --> 0,
(0,1) --> 98,
(0,2) --> 20,
(0,3) --> 69,
(0,4) --> 33,
(0,5) --> 76,
(0,6) --> 43,
(0,7) --> 33,
(0,8) --> 39,
(0,9) --> 38,
(0,10) --> 65,
(0,11) --> 78,
(0,12) --> 22,
(0,13) --> 26,
(0,14) --> 63,
(0,15) --> 72,
(0,16) --> 40,
(0,17) --> 63,
(0,18) --> 25,
(0,19) --> 95,
(0,20) --> 44,
(0,21) --> 32,
(0,22) --> 74,
(0,23) --> 73,
(0,24) --> 58,
(0,25) --> 72,
(0,26) --> 26,
(0,27) --> 86,
(0,28) --> 59,
(0,29) --> 94,
(0,30) --> 90,
(0,31) --> 88,
(0,32) --> 25,
(0,33) --> 75,
(0,34) --> 25,
(0,35) --> 18,
(0,36) --> 95,
(0,37) --> 95,
(0,38) --> 43,
(0,39) --> 18,
(0,40) --> 34,
(0,41) --> 97,
(0,42) --> 77,
(0,43) --> 92,
(0,44) --> 69,
(1,0) --> 98,
(1,1) --> 0,
(1,2) --> 94,
(1,3) --> 89,
(1,4) --> 88,
(1,5) --> 43,
(1,6) --> 92,
(1,7) --> 72,
(1,8) --> 59,
(1,9) --> 62,
(1,10) --> 36,
(1,11) --> 83,
(1,12) --> 108,
(1,13) --> 73,
(1,14) --> 55,
(1,15) --> 26,
(1,16) --> 64,
(1,17) --> 36,
(1,18) --> 76,
(1,19) --> 50,
(1,20) --> 62,
(1,21) --> 77,
(1,22) --> 37,
(1,23) --> 26,
(1,24) --> 68,
(1,25) --> 27,
(1,26) --> 85,
(1,27) --> 67,
(1,28) --> 100,
(1,29) --> 62,
(1,30) --> 32,
(1,31) --> 54,
(1,32) --> 74,
(1,33) --> 58,
(1,34) --> 84,
(1,35) --> 83,
(1,36) --> 50,
(1,37) --> 12,
(1,38) --> 56,
(1,39) --> 83,
(1,40) --> 82,
(1,41) --> 78,
(1,42) --> 21,
(1,43) --> 90,
(1,44) --> 66,
(2,0) --> 20,
(2,1) --> 94,
(2,2) --> 0,
(2,3) --> 50,
(2,4) --> 13,
(2,5) --> 65,
(2,6) --> 23,
(2,7) --> 43,
(2,8) --> 38,
(2,9) --> 33,
(2,10) --> 59,
(2,11) --> 59,
(2,12) --> 13,
(2,13) --> 32,
(2,14) --> 50,
(2,15) --> 69,
(2,16) --> 47,
(2,17) --> 62,
(2,18) --> 35,
(2,19) --> 82,
(2,20) --> 51,
(2,21) --> 18,
(2,22) --> 65,
(2,23) --> 72,
(2,24) --> 42,
(2,25) --> 70,
(2,26) --> 10,
(2,27) --> 70,
(2,28) --> 39,
(2,29) --> 79,
(2,30) --> 80,
(2,31) --> 74,
(2,32) --> 25,
(2,33) --> 60,
(2,34) --> 11,
(2,35) --> 13,
(2,36) --> 82,
(2,37) --> 89,
(2,38) --> 44,
(2,39) --> 13,
(2,40) --> 48,
(2,41) --> 79,
(2,42) --> 74,
(2,43) --> 73,
(2,44) --> 53,
(3,0) --> 69,
(3,1) --> 89,
(3,2) --> 50,
(3,3) --> 0,
(3,4) --> 37,
(3,5) --> 47,
(3,6) --> 28,
(3,7) --> 79,
(3,8) --> 62,
(3,9) --> 52,
(3,10) --> 59,
(3,11) --> 12,
(3,12) --> 57,
(3,13) --> 67,
(3,14) --> 35,
(3,15) --> 72,
(3,16) --> 78,
(3,17) --> 74,
(3,18) --> 72,
(3,19) --> 52,
(3,20) --> 81,
(3,21) --> 40,
(3,22) --> 53,
(3,23) --> 79,
(3,24) --> 24,
(3,25) --> 75,
(3,26) --> 44,
(3,27) --> 31,
(3,28) --> 18,
(3,29) --> 42,
(3,30) --> 61,
(3,31) --> 43,
(3,32) --> 59,
(3,33) --> 33,
(3,34) --> 45,
(3,35) --> 54,
(3,36) --> 52,
(3,37) --> 79,
(3,38) --> 67,
(3,39) --> 54,
(3,40) --> 89,
(3,41) --> 34,
(3,42) --> 77,
(3,43) --> 23,
(3,44) --> 23,
(4,0) --> 33,
(4,1) --> 88,
(4,2) --> 13,
(4,3) --> 37,
(4,4) --> 0,
(4,5) --> 54,
(4,6) --> 11,
(4,7) --> 48,
(4,8) --> 38,
(4,9) --> 30,
(4,10) --> 52,
(4,11) --> 46,
(4,12) --> 24,
(4,13) --> 36,
(4,14) --> 39,
(4,15) --> 64,
(4,16) --> 50,
(4,17) --> 59,
(4,18) --> 40,
(4,19) --> 70,
(4,20) --> 54,
(4,21) --> 12,
(4,22) --> 55,
(4,23) --> 68,
(4,24) --> 30,
(4,25) --> 65,
(4,26) --> 8,
(4,27) --> 57,
(4,28) --> 28,
(4,29) --> 66,
(4,30) --> 70,
(4,31) --> 62,
(4,32) --> 28,
(4,33) --> 48,
(4,34) --> 10,
(4,35) --> 19,
(4,36) --> 70,
(4,37) --> 81,
(4,38) --> 44,
(4,39) --> 19,
(4,40) --> 56,
(4,41) --> 66,
(4,42) --> 69,
(4,43) --> 59,
(4,44) --> 40,
(5,0) --> 76,
(5,1) --> 43,
(5,2) --> 65,
(5,3) --> 47,
(5,4) --> 54,
(5,5) --> 0,
(5,6) --> 55,
(5,7) --> 64,
(5,8) --> 45,
(5,9) --> 39,
(5,10) --> 22,
(5,11) --> 40,
(5,12) --> 78,
(5,13) --> 58,
(5,14) --> 15,
(5,15) --> 31,
(5,16) --> 59,
(5,17) --> 39,
(5,18) --> 63,
(5,19) --> 21,
(5,20) --> 60,
(5,21) --> 46,
(5,22) --> 8,
(5,23) --> 39,
(5,24) --> 27,
(5,25) --> 35,
(5,26) --> 55,
(5,27) --> 26,
(5,28) --> 59,
(5,29) --> 26,
(5,30) --> 16,
(5,31) --> 17,
(5,32) --> 53,
(5,33) --> 15,
(5,34) --> 54,
(5,35) --> 58,
(5,36) --> 21,
(5,37) --> 32,
(5,38) --> 46,
(5,39) --> 58,
(5,40) --> 76,
(5,41) --> 39,
(5,42) --> 34,
(5,43) --> 48,
(5,44) --> 23,
(6,0) --> 43,
(6,1) --> 92,
(6,2) --> 23,
(6,3) --> 28,
(6,4) --> 11,
(6,5) --> 55,
(6,6) --> 0,
(6,7) --> 59,
(6,8) --> 47,
(6,9) --> 37,
(6,10) --> 57,
(6,11) --> 38,
(6,12) --> 30,
(6,13) --> 46,
(6,14) --> 39,
(6,15) --> 69,
(6,16) --> 60,
(6,17) --> 66,
(6,18) --> 51,
(6,19) --> 68,
(6,20) --> 64,
(6,21) --> 20,
(6,22) --> 57,
(6,23) --> 74,
(6,24) --> 28,
(6,25) --> 71,
(6,26) --> 19,
(6,27) --> 52,
(6,28) --> 17,
(6,29) --> 62,
(6,30) --> 71,
(6,31) --> 59,
(6,32) --> 38,
(6,33) --> 46,
(6,34) --> 21,
(6,35) --> 30,
(6,36) --> 68,
(6,37) --> 84,
(6,38) --> 53,
(6,39) --> 30,
(6,40) --> 66,
(6,41) --> 59,
(6,42) --> 74,
(6,43) --> 51,
(6,44) --> 36,
(7,0) --> 33,
(7,1) --> 72,
(7,2) --> 43,
(7,3) --> 79,
(7,4) --> 48,
(7,5) --> 64,
(7,6) --> 59,
(7,7) --> 0,
(7,8) --> 20,
(7,9) --> 28,
(7,10) --> 46,
(7,11) --> 83,
(7,12) --> 52,
(7,13) --> 12,
(7,14) --> 57,
(7,15) --> 48,
(7,16) --> 8,
(7,17) --> 36,
(7,18) --> 8,
(7,19) --> 85,
(7,20) --> 12,
(7,21) --> 39,
(7,22) --> 59,
(7,23) --> 46,
(7,24) --> 59,
(7,25) --> 46,
(7,26) --> 40,
(7,27) --> 83,
(7,28) --> 75,
(7,29) --> 88,
(7,30) --> 74,
(7,31) --> 80,
(7,32) --> 20,
(7,33) --> 69,
(7,34) --> 38,
(7,35) --> 30,
(7,36) --> 85,
(7,37) --> 72,
(7,38) --> 19,
(7,39) --> 30,
(7,40) --> 12,
(7,41) --> 96,
(7,42) --> 52,
(7,43) --> 97,
(7,44) --> 68,
(8,0) --> 39,
(8,1) --> 59,
(8,2) --> 38,
(8,3) --> 62,
(8,4) --> 38,
(8,5) --> 45,
(8,6) --> 47,
(8,7) --> 20,
(8,8) --> 0,
(8,9) --> 10,
(8,10) --> 28,
(8,11) --> 64,
(8,12) --> 51,
(8,13) --> 14,
(8,14) --> 37,
(8,15) --> 34,
(8,16) --> 16,
(8,17) --> 24,
(8,18) --> 18,
(8,19) --> 65,
(8,20) --> 19,
(8,21) --> 27,
(8,22) --> 40,
(8,23) --> 35,
(8,24) --> 40,
(8,25) --> 33,
(8,26) --> 31,
(8,27) --> 64,
(8,28) --> 62,
(8,29) --> 68,
(8,30) --> 55,
(8,31) --> 60,
(8,32) --> 14,
(8,33) --> 50,
(8,34) --> 30,
(8,35) --> 25,
(8,36) --> 65,
(8,37) --> 57,
(8,38) --> 6,
(8,39) --> 25,
(8,40) --> 32,
(8,41) --> 77,
(8,42) --> 39,
(8,43) --> 78,
(8,44) --> 49,
(9,0) --> 38,
(9,1) --> 62,
(9,2) --> 33,
(9,3) --> 52,
(9,4) --> 30,
(9,5) --> 39,
(9,6) --> 37,
(9,7) --> 28,
(9,8) --> 10,
(9,9) --> 0,
(9,10) --> 27,
(9,11) --> 55,
(9,12) --> 46,
(9,13) --> 19,
(9,14) --> 29,
(9,15) --> 36,
(9,16) --> 26,
(9,17) --> 30,
(9,18) --> 24,
(9,19) --> 59,
(9,20) --> 29,
(9,21) --> 18,
(9,22) --> 36,
(9,23) --> 40,
(9,24) --> 31,
(9,25) --> 37,
(9,26) --> 24,
(9,27) --> 55,
(9,28) --> 52,
(9,29) --> 61,
(9,30) --> 52,
(9,31) --> 54,
(9,32) --> 14,
(9,33) --> 42,
(9,34) --> 23,
(9,35) --> 22,
(9,36) --> 59,
(9,37) --> 57,
(9,38) --> 16,
(9,39) --> 22,
(9,40) --> 40,
(9,41) --> 68,
(9,42) --> 42,
(9,43) --> 68,
(9,44) --> 40,
(10,0) --> 65,
(10,1) --> 36,
(10,2) --> 59,
(10,3) --> 59,
(10,4) --> 52,
(10,5) --> 22,
(10,6) --> 57,
(10,7) --> 46,
(10,8) --> 28,
(10,9) --> 27,
(10,10) --> 0,
(10,11) --> 56,
(10,12) --> 72,
(10,13) --> 42,
(10,14) --> 24,
(10,15) --> 13,
(10,16) --> 39,
(10,17) --> 18,
(10,18) --> 46,
(10,19) --> 41,
(10,20) --> 39,
(10,21) --> 42,
(10,22) --> 14,
(10,23) --> 20,
(10,24) --> 35,
(10,25) --> 16,
(10,26) --> 49,
(10,27) --> 47,
(10,28) --> 67,
(10,29) --> 48,
(10,30) --> 28,
(10,31) --> 39,
(10,32) --> 40,
(10,33) --> 33,
(10,34) --> 48,
(10,35) --> 49,
(10,36) --> 41,
(10,37) --> 30,
(10,38) --> 27,
(10,39) --> 49,
(10,40) --> 58,
(10,41) --> 60,
(10,42) --> 18,
(10,43) --> 67,
(10,44) --> 38,
(11,0) --> 78,
(11,1) --> 83,
(11,2) --> 59,
(11,3) --> 12,
(11,4) --> 46,
(11,5) --> 40,
(11,6) --> 38,
(11,7) --> 83,
(11,8) --> 64,
(11,9) --> 55,
(11,10) --> 56,
(11,11) --> 0,
(11,12) --> 68,
(11,13) --> 72,
(11,14) --> 32,
(11,15) --> 68,
(11,16) --> 80,
(11,17) --> 72,
(11,18) --> 77,
(11,19) --> 41,
(11,20) --> 83,
(11,21) --> 47,
(11,22) --> 47,
(11,23) --> 76,
(11,24) --> 24,
(11,25) --> 72,
(11,26) --> 52,
(11,27) --> 20,
(11,28) --> 30,
(11,29) --> 31,
(11,30) --> 53,
(11,31) --> 33,
(11,32) --> 64,
(11,33) --> 25,
(11,34) --> 53,
(11,35) --> 61,
(11,36) --> 41,
(11,37) --> 72,
(11,38) --> 69,
(11,39) --> 61,
(11,40) --> 93,
(11,41) --> 22,
(11,42) --> 72,
(11,43) --> 14,
(11,44) --> 18,
(12,0) --> 22,
(12,1) --> 108,
(12,2) --> 13,
(12,3) --> 57,
(12,4) --> 24,
(12,5) --> 78,
(12,6) --> 30,
(12,7) --> 52,
(12,8) --> 51,
(12,9) --> 46,
(12,10) --> 72,
(12,11) --> 68,
(12,12) --> 0,
(12,13) --> 42,
(12,14) --> 63,
(12,15) --> 82,
(12,16) --> 57,
(12,17) --> 75,
(12,18) --> 44,
(12,19) --> 94,
(12,20) --> 62,
(12,21) --> 32,
(12,22) --> 78,
(12,23) --> 85,
(12,24) --> 54,
(12,25) --> 83,
(12,26) --> 23,
(12,27) --> 81,
(12,28) --> 43,
(12,29) --> 90,
(12,30) --> 93,
(12,31) --> 86,
(12,32) --> 37,
(12,33) --> 72,
(12,34) --> 24,
(12,35) --> 25,
(12,36) --> 94,
(12,37) --> 102,
(12,38) --> 57,
(12,39) --> 25,
(12,40) --> 55,
(12,41) --> 89,
(12,42) --> 88,
(12,43) --> 81,
(12,44) --> 64,
(13,0) --> 26,
(13,1) --> 73,
(13,2) --> 32,
(13,3) --> 67,
(13,4) --> 36,
(13,5) --> 58,
(13,6) --> 46,
(13,7) --> 12,
(13,8) --> 14,
(13,9) --> 19,
(13,10) --> 42,
(13,11) --> 72,
(13,12) --> 42,
(13,13) --> 0,
(13,14) --> 48,
(13,15) --> 47,
(13,16) --> 15,
(13,17) --> 37,
(13,18) --> 6,
(13,19) --> 78,
(13,20) --> 20,
(13,21) --> 27,
(13,22) --> 53,
(13,23) --> 48,
(13,24) --> 48,
(13,25) --> 46,
(13,26) --> 28,
(13,27) --> 74,
(13,28) --> 63,
(13,29) --> 80,
(13,30) --> 69,
(13,31) --> 72,
(13,32) --> 8,
(13,33) --> 60,
(13,34) --> 26,
(13,35) --> 18,
(13,36) --> 78,
(13,37) --> 70,
(13,38) --> 17,
(13,39) --> 18,
(13,40) --> 22,
(13,41) --> 86,
(13,42) --> 52,
(13,43) --> 86,
(13,44) --> 58,
(14,0) --> 63,
(14,1) --> 55,
(14,2) --> 50,
(14,3) --> 35,
(14,4) --> 39,
(14,5) --> 15,
(14,6) --> 39,
(14,7) --> 57,
(14,8) --> 37,
(14,9) --> 29,
(14,10) --> 24,
(14,11) --> 32,
(14,12) --> 63,
(14,13) --> 48,
(14,14) --> 0,
(14,15) --> 36,
(14,16) --> 52,
(14,17) --> 40,
(14,18) --> 53,
(14,19) --> 32,
(14,20) --> 54,
(14,21) --> 32,
(14,22) --> 18,
(14,23) --> 44,
(14,24) --> 13,
(14,25) --> 40,
(14,26) --> 40,
(14,27) --> 27,
(14,28) --> 46,
(14,29) --> 32,
(14,30) --> 31,
(14,31) --> 25,
(14,32) --> 42,
(14,33) --> 13,
(14,34) --> 40,
(14,35) --> 45,
(14,36) --> 32,
(14,37) --> 45,
(14,38) --> 40,
(14,39) --> 45,
(14,40) --> 68,
(14,41) --> 40,
(14,42) --> 41,
(14,43) --> 44,
(14,44) --> 14,
(15,0) --> 72,
(15,1) --> 26,
(15,2) --> 69,
(15,3) --> 72,
(15,4) --> 64,
(15,5) --> 31,
(15,6) --> 69,
(15,7) --> 48,
(15,8) --> 34,
(15,9) --> 36,
(15,10) --> 13,
(15,11) --> 68,
(15,12) --> 82,
(15,13) --> 47,
(15,14) --> 36,
(15,15) --> 0,
(15,16) --> 40,
(15,17) --> 13,
(15,18) --> 50,
(15,19) --> 48,
(15,20) --> 39,
(15,21) --> 52,
(15,22) --> 23,
(15,23) --> 8,
(15,24) --> 48,
(15,25) --> 4,
(15,26) --> 60,
(15,27) --> 57,
(15,28) --> 80,
(15,29) --> 56,
(15,30) --> 31,
(15,31) --> 48,
(15,32) --> 48,
(15,33) --> 44,
(15,34) --> 58,
(15,35) --> 57,
(15,36) --> 48,
(15,37) --> 24,
(15,38) --> 30,
(15,39) --> 57,
(15,40) --> 59,
(15,41) --> 70,
(15,42) --> 6,
(15,43) --> 78,
(15,44) --> 50,
(16,0) --> 40,
(16,1) --> 64,
(16,2) --> 47,
(16,3) --> 78,
(16,4) --> 50,
(16,5) --> 59,
(16,6) --> 60,
(16,7) --> 8,
(16,8) --> 16,
(16,9) --> 26,
(16,10) --> 39,
(16,11) --> 80,
(16,12) --> 57,
(16,13) --> 15,
(16,14) --> 52,
(16,15) --> 40,
(16,16) --> 0,
(16,17) --> 28,
(16,18) --> 14,
(16,19) --> 79,
(16,20) --> 4,
(16,21) --> 40,
(16,22) --> 53,
(16,23) --> 38,
(16,24) --> 56,
(16,25) --> 38,
(16,26) --> 42,
(16,27) --> 79,
(16,28) --> 76,
(16,29) --> 84,
(16,30) --> 67,
(16,31) --> 75,
(16,32) --> 22,
(16,33) --> 65,
(16,34) --> 40,
(16,35) --> 34,
(16,36) --> 79,
(16,37) --> 64,
(16,38) --> 13,
(16,39) --> 34,
(16,40) --> 18,
(16,41) --> 92,
(16,42) --> 44,
(16,43) --> 94,
(16,44) --> 65,
(17,0) --> 63,
(17,1) --> 36,
(17,2) --> 62,
(17,3) --> 74,
(17,4) --> 59,
(17,5) --> 39,
(17,6) --> 66,
(17,7) --> 36,
(17,8) --> 24,
(17,9) --> 30,
(17,10) --> 18,
(17,11) --> 72,
(17,12) --> 75,
(17,13) --> 37,
(17,14) --> 40,
(17,15) --> 13,
(17,16) --> 28,
(17,17) --> 0,
(17,18) --> 39,
(17,19) --> 58,
(17,20) --> 26,
(17,21) --> 48,
(17,22) --> 32,
(17,23) --> 11,
(17,24) --> 50,
(17,25) --> 10,
(17,26) --> 54,
(17,27) --> 65,
(17,28) --> 79,
(17,29) --> 66,
(17,30) --> 43,
(17,31) --> 57,
(17,32) --> 39,
(17,33) --> 51,
(17,34) --> 52,
(17,35) --> 50,
(17,36) --> 58,
(17,37) --> 36,
(17,38) --> 20,
(17,39) --> 50,
(17,40) --> 46,
(17,41) --> 78,
(17,42) --> 16,
(17,43) --> 84,
(17,44) --> 55,
(18,0) --> 25,
(18,1) --> 76,
(18,2) --> 35,
(18,3) --> 72,
(18,4) --> 40,
(18,5) --> 63,
(18,6) --> 51,
(18,7) --> 8,
(18,8) --> 18,
(18,9) --> 24,
(18,10) --> 46,
(18,11) --> 77,
(18,12) --> 44,
(18,13) --> 6,
(18,14) --> 53,
(18,15) --> 50,
(18,16) --> 14,
(18,17) --> 39,
(18,18) --> 0,
(18,19) --> 83,
(18,20) --> 18,
(18,21) --> 32,
(18,22) --> 58,
(18,23) --> 50,
(18,24) --> 54,
(18,25) --> 49,
(18,26) --> 32,
(18,27) --> 80,
(18,28) --> 68,
(18,29) --> 85,
(18,30) --> 74,
(18,31) --> 78,
(18,32) --> 13,
(18,33) --> 66,
(18,34) --> 30,
(18,35) --> 22,
(18,36) --> 83,
(18,37) --> 74,
(18,38) --> 20,
(18,39) --> 22,
(18,40) --> 16,
(18,41) --> 92,
(18,42) --> 55,
(18,43) --> 91,
(18,44) --> 64,
(19,0) --> 95,
(19,1) --> 50,
(19,2) --> 82,
(19,3) --> 52,
(19,4) --> 70,
(19,5) --> 21,
(19,6) --> 68,
(19,7) --> 85,
(19,8) --> 65,
(19,9) --> 59,
(19,10) --> 41,
(19,11) --> 41,
(19,12) --> 94,
(19,13) --> 78,
(19,14) --> 32,
(19,15) --> 48,
(19,16) --> 79,
(19,17) --> 58,
(19,18) --> 83,
(19,19) --> 0,
(19,20) --> 80,
(19,21) --> 64,
(19,22) --> 27,
(19,23) --> 56,
(19,24) --> 40,
(19,25) --> 52,
(19,26) --> 72,
(19,27) --> 21,
(19,28) --> 68,
(19,29) --> 13,
(19,30) --> 18,
(19,31) --> 9,
(19,32) --> 73,
(19,33) --> 22,
(19,34) --> 72,
(19,35) --> 77,
(19,36) --> 0,
(19,37) --> 38,
(19,38) --> 67,
(19,39) --> 77,
(19,40) --> 97,
(19,41) --> 29,
(19,42) --> 49,
(19,43) --> 43,
(19,44) --> 32,
(20,0) --> 44,
(20,1) --> 62,
(20,2) --> 51,
(20,3) --> 81,
(20,4) --> 54,
(20,5) --> 60,
(20,6) --> 64,
(20,7) --> 12,
(20,8) --> 19,
(20,9) --> 29,
(20,10) --> 39,
(20,11) --> 83,
(20,12) --> 62,
(20,13) --> 20,
(20,14) --> 54,
(20,15) --> 39,
(20,16) --> 4,
(20,17) --> 26,
(20,18) --> 18,
(20,19) --> 80,
(20,20) --> 0,
(20,21) --> 44,
(20,22) --> 53,
(20,23) --> 36,
(20,24) --> 59,
(20,25) --> 36,
(20,26) --> 47,
(20,27) --> 81,
(20,28) --> 80,
(20,29) --> 85,
(20,30) --> 67,
(20,31) --> 76,
(20,32) --> 27,
(20,33) --> 67,
(20,34) --> 45,
(20,35) --> 38,
(20,36) --> 80,
(20,37) --> 63,
(20,38) --> 14,
(20,39) --> 38,
(20,40) --> 20,
(20,41) --> 94,
(20,42) --> 42,
(20,43) --> 97,
(20,44) --> 67,
(21,0) --> 32,
(21,1) --> 77,
(21,2) --> 18,
(21,3) --> 40,
(21,4) --> 12,
(21,5) --> 46,
(21,6) --> 20,
(21,7) --> 39,
(21,8) --> 27,
(21,9) --> 18,
(21,10) --> 42,
(21,11) --> 47,
(21,12) --> 32,
(21,13) --> 27,
(21,14) --> 32,
(21,15) --> 52,
(21,16) --> 40,
(21,17) --> 48,
(21,18) --> 32,
(21,19) --> 64,
(21,20) --> 44,
(21,21) --> 0,
(21,22) --> 46,
(21,23) --> 57,
(21,24) --> 26,
(21,25) --> 54,
(21,26) --> 8,
(21,27) --> 54,
(21,28) --> 36,
(21,29) --> 62,
(21,30) --> 62,
(21,31) --> 57,
(21,32) --> 19,
(21,33) --> 43,
(21,34) --> 8,
(21,35) --> 14,
(21,36) --> 64,
(21,37) --> 71,
(21,38) --> 33,
(21,39) --> 14,
(21,40) --> 48,
(21,41) --> 64,
(21,42) --> 58,
(21,43) --> 61,
(21,44) --> 37,
(22,0) --> 74,
(22,1) --> 37,
(22,2) --> 65,
(22,3) --> 53,
(22,4) --> 55,
(22,5) --> 8,
(22,6) --> 57,
(22,7) --> 59,
(22,8) --> 40,
(22,9) --> 36,
(22,10) --> 14,
(22,11) --> 47,
(22,12) --> 78,
(22,13) --> 53,
(22,14) --> 18,
(22,15) --> 23,
(22,16) --> 53,
(22,17) --> 32,
(22,18) --> 58,
(22,19) --> 27,
(22,20) --> 53,
(22,21) --> 46,
(22,22) --> 0,
(22,23) --> 31,
(22,24) --> 31,
(22,25) --> 27,
(22,26) --> 54,
(22,27) --> 35,
(22,28) --> 64,
(22,29) --> 34,
(22,30) --> 16,
(22,31) --> 25,
(22,32) --> 50,
(22,33) --> 22,
(22,34) --> 54,
(22,35) --> 56,
(22,36) --> 27,
(22,37) --> 27,
(22,38) --> 40,
(22,39) --> 56,
(22,40) --> 71,
(22,41) --> 48,
(22,42) --> 26,
(22,43) --> 56,
(22,44) --> 30,
(23,0) --> 73,
(23,1) --> 26,
(23,2) --> 72,
(23,3) --> 79,
(23,4) --> 68,
(23,5) --> 39,
(23,6) --> 74,
(23,7) --> 46,
(23,8) --> 35,
(23,9) --> 40,
(23,10) --> 20,
(23,11) --> 76,
(23,12) --> 85,
(23,13) --> 48,
(23,14) --> 44,
(23,15) --> 8,
(23,16) --> 38,
(23,17) --> 11,
(23,18) --> 50,
(23,19) --> 56,
(23,20) --> 36,
(23,21) --> 57,
(23,22) --> 31,
(23,23) --> 0,
(23,24) --> 55,
(23,25) --> 4,
(23,26) --> 64,
(23,27) --> 66,
(23,28) --> 86,
(23,29) --> 65,
(23,30) --> 38,
(23,31) --> 56,
(23,32) --> 49,
(23,33) --> 52,
(23,34) --> 62,
(23,35) --> 60,
(23,36) --> 56,
(23,37) --> 28,
(23,38) --> 30,
(23,39) --> 60,
(23,40) --> 56,
(23,41) --> 79,
(23,42) --> 7,
(23,43) --> 86,
(23,44) --> 58,
(24,0) --> 58,
(24,1) --> 68,
(24,2) --> 42,
(24,3) --> 24,
(24,4) --> 30,
(24,5) --> 27,
(24,6) --> 28,
(24,7) --> 59,
(24,8) --> 40,
(24,9) --> 31,
(24,10) --> 35,
(24,11) --> 24,
(24,12) --> 54,
(24,13) --> 48,
(24,14) --> 13,
(24,15) --> 48,
(24,16) --> 56,
(24,17) --> 50,
(24,18) --> 54,
(24,19) --> 40,
(24,20) --> 59,
(24,21) --> 26,
(24,22) --> 31,
(24,23) --> 55,
(24,24) --> 0,
(24,25) --> 51,
(24,26) --> 33,
(24,27) --> 28,
(24,28) --> 33,
(24,29) --> 36,
(24,30) --> 43,
(24,31) --> 32,
(24,32) --> 41,
(24,33) --> 18,
(24,34) --> 34,
(24,35) --> 40,
(24,36) --> 40,
(24,37) --> 58,
(24,38) --> 45,
(24,39) --> 40,
(24,40) --> 70,
(24,41) --> 39,
(24,42) --> 53,
(24,43) --> 38,
(24,44) --> 11,
(25,0) --> 72,
(25,1) --> 27,
(25,2) --> 70,
(25,3) --> 75,
(25,4) --> 65,
(25,5) --> 35,
(25,6) --> 71,
(25,7) --> 46,
(25,8) --> 33,
(25,9) --> 37,
(25,10) --> 16,
(25,11) --> 72,
(25,12) --> 83,
(25,13) --> 46,
(25,14) --> 40,
(25,15) --> 4,
(25,16) --> 38,
(25,17) --> 10,
(25,18) --> 49,
(25,19) --> 52,
(25,20) --> 36,
(25,21) --> 54,
(25,22) --> 27,
(25,23) --> 4,
(25,24) --> 51,
(25,25) --> 0,
(25,26) --> 61,
(25,27) --> 62,
(25,28) --> 82,
(25,29) --> 61,
(25,30) --> 35,
(25,31) --> 52,
(25,32) --> 47,
(25,33) --> 48,
(25,34) --> 59,
(25,35) --> 58,
(25,36) --> 52,
(25,37) --> 27,
(25,38) --> 29,
(25,39) --> 58,
(25,40) --> 56,
(25,41) --> 75,
(25,42) --> 6,
(25,43) --> 82,
(25,44) --> 54,
(26,0) --> 26,
(26,1) --> 85,
(26,2) --> 10,
(26,3) --> 44,
(26,4) --> 8,
(26,5) --> 55,
(26,6) --> 19,
(26,7) --> 40,
(26,8) --> 31,
(26,9) --> 24,
(26,10) --> 49,
(26,11) --> 52,
(26,12) --> 23,
(26,13) --> 28,
(26,14) --> 40,
(26,15) --> 60,
(26,16) --> 42,
(26,17) --> 54,
(26,18) --> 32,
(26,19) --> 72,
(26,20) --> 47,
(26,21) --> 8,
(26,22) --> 54,
(26,23) --> 64,
(26,24) --> 33,
(26,25) --> 61,
(26,26) --> 0,
(26,27) --> 61,
(26,28) --> 36,
(26,29) --> 69,
(26,30) --> 70,
(26,31) --> 64,
(26,32) --> 20,
(26,33) --> 50,
(26,34) --> 2,
(26,35) --> 11,
(26,36) --> 72,
(26,37) --> 79,
(26,38) --> 38,
(26,39) --> 11,
(26,40) --> 48,
(26,41) --> 71,
(26,42) --> 65,
(26,43) --> 66,
(26,44) --> 44,
(27,0) --> 86,
(27,1) --> 67,
(27,2) --> 70,
(27,3) --> 31,
(27,4) --> 57,
(27,5) --> 26,
(27,6) --> 52,
(27,7) --> 83,
(27,8) --> 64,
(27,9) --> 55,
(27,10) --> 47,
(27,11) --> 20,
(27,12) --> 81,
(27,13) --> 74,
(27,14) --> 27,
(27,15) --> 57,
(27,16) --> 79,
(27,17) --> 65,
(27,18) --> 80,
(27,19) --> 21,
(27,20) --> 81,
(27,21) --> 54,
(27,22) --> 35,
(27,23) --> 66,
(27,24) --> 28,
(27,25) --> 62,
(27,26) --> 61,
(27,27) --> 0,
(27,28) --> 49,
(27,29) --> 11,
(27,30) --> 35,
(27,31) --> 13,
(27,32) --> 68,
(27,33) --> 14,
(27,34) --> 61,
(27,35) --> 68,
(27,36) --> 21,
(27,37) --> 55,
(27,38) --> 67,
(27,39) --> 68,
(27,40) --> 95,
(27,41) --> 13,
(27,42) --> 61,
(27,43) --> 23,
(27,44) --> 17,
(28,0) --> 59,
(28,1) --> 100,
(28,2) --> 39,
(28,3) --> 18,
(28,4) --> 28,
(28,5) --> 59,
(28,6) --> 17,
(28,7) --> 75,
(28,8) --> 62,
(28,9) --> 52,
(28,10) --> 67,
(28,11) --> 30,
(28,12) --> 43,
(28,13) --> 63,
(28,14) --> 46,
(28,15) --> 80,
(28,16) --> 76,
(28,17) --> 79,
(28,18) --> 68,
(28,19) --> 68,
(28,20) --> 80,
(28,21) --> 36,
(28,22) --> 64,
(28,23) --> 86,
(28,24) --> 33,
(28,25) --> 82,
(28,26) --> 36,
(28,27) --> 49,
(28,28) --> 0,
(28,29) --> 59,
(28,30) --> 75,
(28,31) --> 59,
(28,32) --> 55,
(28,33) --> 47,
(28,34) --> 38,
(28,35) --> 47,
(28,36) --> 68,
(28,37) --> 91,
(28,38) --> 68,
(28,39) --> 47,
(28,40) --> 84,
(28,41) --> 52,
(28,42) --> 85,
(28,43) --> 40,
(28,44) --> 37,
(29,0) --> 94,
(29,1) --> 62,
(29,2) --> 79,
(29,3) --> 42,
(29,4) --> 66,
(29,5) --> 26,
(29,6) --> 62,
(29,7) --> 88,
(29,8) --> 68,
(29,9) --> 61,
(29,10) --> 48,
(29,11) --> 31,
(29,12) --> 90,
(29,13) --> 80,
(29,14) --> 32,
(29,15) --> 56,
(29,16) --> 84,
(29,17) --> 66,
(29,18) --> 85,
(29,19) --> 13,
(29,20) --> 85,
(29,21) --> 62,
(29,22) --> 34,
(29,23) --> 65,
(29,24) --> 36,
(29,25) --> 61,
(29,26) --> 69,
(29,27) --> 11,
(29,28) --> 59,
(29,29) --> 0,
(29,30) --> 30,
(29,31) --> 9,
(29,32) --> 74,
(29,33) --> 20,
(29,34) --> 70,
(29,35) --> 76,
(29,36) --> 13,
(29,37) --> 50,
(29,38) --> 71,
(29,39) --> 76,
(29,40) --> 100,
(29,41) --> 16,
(29,42) --> 59,
(29,43) --> 31,
(29,44) --> 26,
(30,0) --> 90,
(30,1) --> 32,
(30,2) --> 80,
(30,3) --> 61,
(30,4) --> 70,
(30,5) --> 16,
(30,6) --> 71,
(30,7) --> 74,
(30,8) --> 55,
(30,9) --> 52,
(30,10) --> 28,
(30,11) --> 53,
(30,12) --> 93,
(30,13) --> 69,
(30,14) --> 31,
(30,15) --> 31,
(30,16) --> 67,
(30,17) --> 43,
(30,18) --> 74,
(30,19) --> 18,
(30,20) --> 67,
(30,21) --> 62,
(30,22) --> 16,
(30,23) --> 38,
(30,24) --> 43,
(30,25) --> 35,
(30,26) --> 70,
(30,27) --> 35,
(30,28) --> 75,
(30,29) --> 30,
(30,30) --> 0,
(30,31) --> 22,
(30,32) --> 66,
(30,33) --> 28,
(30,34) --> 69,
(30,35) --> 72,
(30,36) --> 18,
(30,37) --> 20,
(30,38) --> 55,
(30,39) --> 72,
(30,40) --> 85,
(30,41) --> 46,
(30,42) --> 32,
(30,43) --> 58,
(30,44) --> 38,
(31,0) --> 88,
(31,1) --> 54,
(31,2) --> 74,
(31,3) --> 43,
(31,4) --> 62,
(31,5) --> 17,
(31,6) --> 59,
(31,7) --> 80,
(31,8) --> 60,
(31,9) --> 54,
(31,10) --> 39,
(31,11) --> 33,
(31,12) --> 86,
(31,13) --> 72,
(31,14) --> 25,
(31,15) --> 48,
(31,16) --> 75,
(31,17) --> 57,
(31,18) --> 78,
(31,19) --> 9,
(31,20) --> 76,
(31,21) --> 57,
(31,22) --> 25,
(31,23) --> 56,
(31,24) --> 32,
(31,25) --> 52,
(31,26) --> 64,
(31,27) --> 13,
(31,28) --> 59,
(31,29) --> 9,
(31,30) --> 22,
(31,31) --> 0,
(31,32) --> 67,
(31,33) --> 14,
(31,34) --> 64,
(31,35) --> 70,
(31,36) --> 9,
(31,37) --> 42,
(31,38) --> 62,
(31,39) --> 70,
(31,40) --> 92,
(31,41) --> 24,
(31,42) --> 50,
(31,43) --> 36,
(31,44) --> 23,
(32,0) --> 25,
(32,1) --> 74,
(32,2) --> 25,
(32,3) --> 59,
(32,4) --> 28,
(32,5) --> 53,
(32,6) --> 38,
(32,7) --> 20,
(32,8) --> 14,
(32,9) --> 14,
(32,10) --> 40,
(32,11) --> 64,
(32,12) --> 37,
(32,13) --> 8,
(32,14) --> 42,
(32,15) --> 48,
(32,16) --> 22,
(32,17) --> 39,
(32,18) --> 13,
(32,19) --> 73,
(32,20) --> 27,
(32,21) --> 19,
(32,22) --> 50,
(32,23) --> 49,
(32,24) --> 41,
(32,25) --> 47,
(32,26) --> 20,
(32,27) --> 68,
(32,28) --> 55,
(32,29) --> 74,
(32,30) --> 66,
(32,31) --> 67,
(32,32) --> 0,
(32,33) --> 55,
(32,34) --> 18,
(32,35) --> 12,
(32,36) --> 73,
(32,37) --> 70,
(32,38) --> 20,
(32,39) --> 12,
(32,40) --> 30,
(32,41) --> 80,
(32,42) --> 53,
(32,43) --> 78,
(32,44) --> 51,
(33,0) --> 75,
(33,1) --> 58,
(33,2) --> 60,
(33,3) --> 33,
(33,4) --> 48,
(33,5) --> 15,
(33,6) --> 46,
(33,7) --> 69,
(33,8) --> 50,
(33,9) --> 42,
(33,10) --> 33,
(33,11) --> 25,
(33,12) --> 72,
(33,13) --> 60,
(33,14) --> 13,
(33,15) --> 44,
(33,16) --> 65,
(33,17) --> 51,
(33,18) --> 66,
(33,19) --> 22,
(33,20) --> 67,
(33,21) --> 43,
(33,22) --> 22,
(33,23) --> 52,
(33,24) --> 18,
(33,25) --> 48,
(33,26) --> 50,
(33,27) --> 14,
(33,28) --> 47,
(33,29) --> 20,
(33,30) --> 28,
(33,31) --> 14,
(33,32) --> 55,
(33,33) --> 0,
(33,34) --> 51,
(33,35) --> 56,
(33,36) --> 22,
(33,37) --> 47,
(33,38) --> 52,
(33,39) --> 56,
(33,40) --> 81,
(33,41) --> 28,
(33,42) --> 48,
(33,43) --> 34,
(33,44) --> 10,
(34,0) --> 25,
(34,1) --> 84,
(34,2) --> 11,
(34,3) --> 45,
(34,4) --> 10,
(34,5) --> 54,
(34,6) --> 21,
(34,7) --> 38,
(34,8) --> 30,
(34,9) --> 23,
(34,10) --> 48,
(34,11) --> 53,
(34,12) --> 24,
(34,13) --> 26,
(34,14) --> 40,
(34,15) --> 58,
(34,16) --> 40,
(34,17) --> 52,
(34,18) --> 30,
(34,19) --> 72,
(34,20) --> 45,
(34,21) --> 8,
(34,22) --> 54,
(34,23) --> 62,
(34,24) --> 34,
(34,25) --> 59,
(34,26) --> 2,
(34,27) --> 61,
(34,28) --> 38,
(34,29) --> 70,
(34,30) --> 69,
(34,31) --> 64,
(34,32) --> 18,
(34,33) --> 51,
(34,34) --> 0,
(34,35) --> 9,
(34,36) --> 72,
(34,37) --> 78,
(34,38) --> 36,
(34,39) --> 9,
(34,40) --> 46,
(34,41) --> 72,
(34,42) --> 64,
(34,43) --> 67,
(34,44) --> 44,
(35,0) --> 18,
(35,1) --> 83,
(35,2) --> 13,
(35,3) --> 54,
(35,4) --> 19,
(35,5) --> 58,
(35,6) --> 30,
(35,7) --> 30,
(35,8) --> 25,
(35,9) --> 22,
(35,10) --> 49,
(35,11) --> 61,
(35,12) --> 25,
(35,13) --> 18,
(35,14) --> 45,
(35,15) --> 57,
(35,16) --> 34,
(35,17) --> 50,
(35,18) --> 22,
(35,19) --> 77,
(35,20) --> 38,
(35,21) --> 14,
(35,22) --> 56,
(35,23) --> 60,
(35,24) --> 40,
(35,25) --> 58,
(35,26) --> 11,
(35,27) --> 68,
(35,28) --> 47,
(35,29) --> 76,
(35,30) --> 72,
(35,31) --> 70,
(35,32) --> 12,
(35,33) --> 56,
(35,34) --> 9,
(35,35) --> 0,
(35,36) --> 77,
(35,37) --> 78,
(35,38) --> 31,
(35,39) --> 0,
(35,40) --> 37,
(35,41) --> 79,
(35,42) --> 63,
(35,43) --> 75,
(35,44) --> 51,
(36,0) --> 95,
(36,1) --> 50,
(36,2) --> 82,
(36,3) --> 52,
(36,4) --> 70,
(36,5) --> 21,
(36,6) --> 68,
(36,7) --> 85,
(36,8) --> 65,
(36,9) --> 59,
(36,10) --> 41,
(36,11) --> 41,
(36,12) --> 94,
(36,13) --> 78,
(36,14) --> 32,
(36,15) --> 48,
(36,16) --> 79,
(36,17) --> 58,
(36,18) --> 83,
(36,19) --> 0,
(36,20) --> 80,
(36,21) --> 64,
(36,22) --> 27,
(36,23) --> 56,
(36,24) --> 40,
(36,25) --> 52,
(36,26) --> 72,
(36,27) --> 21,
(36,28) --> 68,
(36,29) --> 13,
(36,30) --> 18,
(36,31) --> 9,
(36,32) --> 73,
(36,33) --> 22,
(36,34) --> 72,
(36,35) --> 77,
(36,36) --> 0,
(36,37) --> 38,
(36,38) --> 67,
(36,39) --> 77,
(36,40) --> 97,
(36,41) --> 29,
(36,42) --> 49,
(36,43) --> 43,
(36,44) --> 32,
(37,0) --> 95,
(37,1) --> 12,
(37,2) --> 89,
(37,3) --> 79,
(37,4) --> 81,
(37,5) --> 32,
(37,6) --> 84,
(37,7) --> 72,
(37,8) --> 57,
(37,9) --> 57,
(37,10) --> 30,
(37,11) --> 72,
(37,12) --> 102,
(37,13) --> 70,
(37,14) --> 45,
(37,15) --> 24,
(37,16) --> 64,
(37,17) --> 36,
(37,18) --> 74,
(37,19) --> 38,
(37,20) --> 63,
(37,21) --> 71,
(37,22) --> 27,
(37,23) --> 28,
(37,24) --> 58,
(37,25) --> 27,
(37,26) --> 79,
(37,27) --> 55,
(37,28) --> 91,
(37,29) --> 50,
(37,30) --> 20,
(37,31) --> 42,
(37,32) --> 70,
(37,33) --> 47,
(37,34) --> 78,
(37,35) --> 78,
(37,36) --> 38,
(37,37) --> 0,
(37,38) --> 54,
(37,39) --> 78,
(37,40) --> 83,
(37,41) --> 66,
(37,42) --> 21,
(37,43) --> 78,
(37,44) --> 56,
(38,0) --> 43,
(38,1) --> 56,
(38,2) --> 44,
(38,3) --> 67,
(38,4) --> 44,
(38,5) --> 46,
(38,6) --> 53,
(38,7) --> 19,
(38,8) --> 6,
(38,9) --> 16,
(38,10) --> 27,
(38,11) --> 69,
(38,12) --> 57,
(38,13) --> 17,
(38,14) --> 40,
(38,15) --> 30,
(38,16) --> 13,
(38,17) --> 20,
(38,18) --> 20,
(38,19) --> 67,
(38,20) --> 14,
(38,21) --> 33,
(38,22) --> 40,
(38,23) --> 30,
(38,24) --> 45,
(38,25) --> 29,
(38,26) --> 38,
(38,27) --> 67,
(38,28) --> 68,
(38,29) --> 71,
(38,30) --> 55,
(38,31) --> 62,
(38,32) --> 20,
(38,33) --> 52,
(38,34) --> 36,
(38,35) --> 31,
(38,36) --> 67,
(38,37) --> 54,
(38,38) --> 0,
(38,39) --> 31,
(38,40) --> 30,
(38,41) --> 80,
(38,42) --> 35,
(38,43) --> 82,
(38,44) --> 53,
(39,0) --> 18,
(39,1) --> 83,
(39,2) --> 13,
(39,3) --> 54,
(39,4) --> 19,
(39,5) --> 58,
(39,6) --> 30,
(39,7) --> 30,
(39,8) --> 25,
(39,9) --> 22,
(39,10) --> 49,
(39,11) --> 61,
(39,12) --> 25,
(39,13) --> 18,
(39,14) --> 45,
(39,15) --> 57,
(39,16) --> 34,
(39,17) --> 50,
(39,18) --> 22,
(39,19) --> 77,
(39,20) --> 38,
(39,21) --> 14,
(39,22) --> 56,
(39,23) --> 60,
(39,24) --> 40,
(39,25) --> 58,
(39,26) --> 11,
(39,27) --> 68,
(39,28) --> 47,
(39,29) --> 76,
(39,30) --> 72,
(39,31) --> 70,
(39,32) --> 12,
(39,33) --> 56,
(39,34) --> 9,
(39,35) --> 0,
(39,36) --> 77,
(39,37) --> 78,
(39,38) --> 31,
(39,39) --> 0,
(39,40) --> 37,
(39,41) --> 79,
(39,42) --> 63,
(39,43) --> 75,
(39,44) --> 51,
(40,0) --> 34,
(40,1) --> 82,
(40,2) --> 48,
(40,3) --> 89,
(40,4) --> 56,
(40,5) --> 76,
(40,6) --> 66,
(40,7) --> 12,
(40,8) --> 32,
(40,9) --> 40,
(40,10) --> 58,
(40,11) --> 93,
(40,12) --> 55,
(40,13) --> 22,
(40,14) --> 68,
(40,15) --> 59,
(40,16) --> 18,
(40,17) --> 46,
(40,18) --> 16,
(40,19) --> 97,
(40,20) --> 20,
(40,21) --> 48,
(40,22) --> 71,
(40,23) --> 56,
(40,24) --> 70,
(40,25) --> 56,
(40,26) --> 48,
(40,27) --> 95,
(40,28) --> 84,
(40,29) --> 100,
(40,30) --> 85,
(40,31) --> 92,
(40,32) --> 30,
(40,33) --> 81,
(40,34) --> 46,
(40,35) --> 37,
(40,36) --> 97,
(40,37) --> 83,
(40,38) --> 30,
(40,39) --> 37,
(40,40) --> 0,
(40,41) --> 107,
(40,42) --> 62,
(40,43) --> 107,
(40,44) --> 79,
(41,0) --> 97,
(41,1) --> 78,
(41,2) --> 79,
(41,3) --> 34,
(41,4) --> 66,
(41,5) --> 39,
(41,6) --> 59,
(41,7) --> 96,
(41,8) --> 77,
(41,9) --> 68,
(41,10) --> 60,
(41,11) --> 22,
(41,12) --> 89,
(41,13) --> 86,
(41,14) --> 40,
(41,15) --> 70,
(41,16) --> 92,
(41,17) --> 78,
(41,18) --> 92,
(41,19) --> 29,
(41,20) --> 94,
(41,21) --> 64,
(41,22) --> 48,
(41,23) --> 79,
(41,24) --> 39,
(41,25) --> 75,
(41,26) --> 71,
(41,27) --> 13,
(41,28) --> 52,
(41,29) --> 16,
(41,30) --> 46,
(41,31) --> 24,
(41,32) --> 80,
(41,33) --> 28,
(41,34) --> 72,
(41,35) --> 79,
(41,36) --> 29,
(41,37) --> 66,
(41,38) --> 80,
(41,39) --> 79,
(41,40) --> 107,
(41,41) --> 0,
(41,42) --> 73,
(41,43) --> 16,
(41,44) --> 28,
(42,0) --> 77,
(42,1) --> 21,
(42,2) --> 74,
(42,3) --> 77,
(42,4) --> 69,
(42,5) --> 34,
(42,6) --> 74,
(42,7) --> 52,
(42,8) --> 39,
(42,9) --> 42,
(42,10) --> 18,
(42,11) --> 72,
(42,12) --> 88,
(42,13) --> 52,
(42,14) --> 41,
(42,15) --> 6,
(42,16) --> 44,
(42,17) --> 16,
(42,18) --> 55,
(42,19) --> 49,
(42,20) --> 42,
(42,21) --> 58,
(42,22) --> 26,
(42,23) --> 7,
(42,24) --> 53,
(42,25) --> 6,
(42,26) --> 65,
(42,27) --> 61,
(42,28) --> 85,
(42,29) --> 59,
(42,30) --> 32,
(42,31) --> 50,
(42,32) --> 53,
(42,33) --> 48,
(42,34) --> 64,
(42,35) --> 63,
(42,36) --> 49,
(42,37) --> 21,
(42,38) --> 35,
(42,39) --> 63,
(42,40) --> 62,
(42,41) --> 73,
(42,42) --> 0,
(42,43) --> 82,
(42,44) --> 55,
(43,0) --> 92,
(43,1) --> 90,
(43,2) --> 73,
(43,3) --> 23,
(43,4) --> 59,
(43,5) --> 48,
(43,6) --> 51,
(43,7) --> 97,
(43,8) --> 78,
(43,9) --> 68,
(43,10) --> 67,
(43,11) --> 14,
(43,12) --> 81,
(43,13) --> 86,
(43,14) --> 44,
(43,15) --> 78,
(43,16) --> 94,
(43,17) --> 84,
(43,18) --> 91,
(43,19) --> 43,
(43,20) --> 97,
(43,21) --> 61,
(43,22) --> 56,
(43,23) --> 86,
(43,24) --> 38,
(43,25) --> 82,
(43,26) --> 66,
(43,27) --> 23,
(43,28) --> 40,
(43,29) --> 31,
(43,30) --> 58,
(43,31) --> 36,
(43,32) --> 78,
(43,33) --> 34,
(43,34) --> 67,
(43,35) --> 75,
(43,36) --> 43,
(43,37) --> 78,
(43,38) --> 82,
(43,39) --> 75,
(43,40) --> 107,
(43,41) --> 16,
(43,42) --> 82,
(43,43) --> 0,
(43,44) --> 30,
(44,0) --> 69,
(44,1) --> 66,
(44,2) --> 53,
(44,3) --> 23,
(44,4) --> 40,
(44,5) --> 23,
(44,6) --> 36,
(44,7) --> 68,
(44,8) --> 49,
(44,9) --> 40,
(44,10) --> 38,
(44,11) --> 18,
(44,12) --> 64,
(44,13) --> 58,
(44,14) --> 14,
(44,15) --> 50,
(44,16) --> 65,
(44,17) --> 55,
(44,18) --> 64,
(44,19) --> 32,
(44,20) --> 67,
(44,21) --> 37,
(44,22) --> 30,
(44,23) --> 58,
(44,24) --> 11,
(44,25) --> 54,
(44,26) --> 44,
(44,27) --> 17,
(44,28) --> 37,
(44,29) --> 26,
(44,30) --> 38,
(44,31) --> 23,
(44,32) --> 51,
(44,33) --> 10,
(44,34) --> 44,
(44,35) --> 51,
(44,36) --> 32,
(44,37) --> 56,
(44,38) --> 53,
(44,39) --> 51,
(44,40) --> 79,
(44,41) --> 28,
(44,42) --> 55,
(44,43) --> 30,
(44,44) --> 0)
letting orderWeights be function (
1 --> 14
,
2 --> 1
,
3 --> 16
,
4 --> 23
,
5 --> 12
,
6 --> 6
,
7 --> 5
,
8 --> 1
,
9 --> 13
,
10 --> 20
,
11 --> 14
,
12 --> 18
,
13 --> 7
,
14 --> 8
,
15 --> 21
,
16 --> 8
,
17 --> 24
,
18 --> 20
,
19 --> 19
,
20 --> 13
,
21 --> 3
,
22 --> 26
,
23 --> 17
,
24 --> 22
,
25 --> 8
,
26 --> 16
,
27 --> 20
,
28 --> 12
,
29 --> 22
,
30 --> 20
,
31 --> 12
,
32 --> 14
,
33 --> 25
,
34 --> 17
,
35 --> 19
,
36 --> 20
,
37 --> 15
,
38 --> 2
,
39 --> 9
,
40 --> 10
,
41 --> 6
,
42 --> 11
,
43 --> 21
,
44 --> 24
)
letting vehicleCapacity be 100
